\ LP format - for model browsing. Use MPS format to capture full model detail.
Minimize
  28.77 x1_2 + 6.42 x1_3 + 24.01 x2_1 + 18.92 x2_3 + 6.12 x3_1 + 18.81 x3_2
   + 25.54 x4_1 + 2.12 x4_2 + 20.45 x4_3 + 16.94 x5_1 + 11.31 x5_2
   + 10.01 x5_3 + 3.51 x6_1 + 21.31 x6_2 + 3.4 x6_3 + 16.36 x7_1
   + 16.02 x7_2 + 14.72 x7_3 + 2.9 x8_1 + 23.79 x8_2 + 5.18 x8_3
   + 7.04 x9_1 + 18.54 x9_2 + 1.02 x9_3 + 9.29 x10_1 + 16.55 x10_2
   + 3.83 x10_3 + 23.12 x11_1 + 1.94 x11_2 + 18.03 x11_3 + 34.87 x12_1
   + 4.25 x12_2 + 20.36 x12_3 + 22.53 x13_1 + 3.09 x13_2 + 17.44 x13_3
   + 6.31 x14_1 + 19.13 x14_2 + 1.61 x14_3 + 21.34 x15_1 + 15.54 x15_2
   + 15.16 x15_3 + 25.66 x16_1 + 2.51 x16_2 + 20.57 x16_3 + 16.26 x17_1
   + 12.4 x17_2 + 6.92 x17_3 + 24.32 x18_1 + 3.9 x18_2 + 19.36 x18_3
   + 6.52 x19_1 + 22.55 x19_2 + 4.57 x19_3 + 21.27 x20_1 + 3.03 x20_2
   + 16.18 x20_3 + 10.58 x21_1 + 14.65 x21_2 + 3.74 x21_3 + 19.46 x22_1
   + 19.58 x22_2 + 20.92 x22_3 + 13.12 x23_1 + 13.95 x23_2 + 6.77 x23_3
   + 8.23 x24_1 + 16.19 x24_2 + 4.16 x24_3 + 28.7 x25_1 + 8.05 x25_2
   + 20.75 x25_3 + 20.83 x26_1 + 4.43 x26_2 + 15.74 x26_3 + 22.23 x27_1
   + 5.09 x27_2 + 18.17 x27_3 + 28.96 x28_1 + 9.74 x28_2 + 22.44 x28_3
   + 17.72 x29_1 + 11.92 x29_2 + 11.54 x29_3 + 4.62 x30_1 + 22.07 x30_2
   + 2.88 x30_3 + 19.98 x31_1 + 7.1 x31_2 + 13.8 x31_3 + 16.55 x32_1
   + 13.55 x32_2 + 12.25 x32_3 + 10.51 x33_1 + 14.88 x33_2 + 3.57 x33_3
   + 23.84 x34_1 + 17.96 x34_2 + 19.3 x34_3 + 18.69 x35_1 + 15.34 x35_2
   + 14.96 x35_3 + 33.75 x36_1 + 6.58 x36_2 + 24.64 x36_3
Subject To
 Contrainte0: x1_1 + x1_2 + x1_3 = 1
 Contrainte1: x2_1 + x2_2 + x2_3 = 1
 Contrainte2: x3_1 + x3_2 + x3_3 = 1
 Contrainte3: x4_1 + x4_2 + x4_3 = 1
 Contrainte4: x5_1 + x5_2 + x5_3 = 1
 Contrainte5: x6_1 + x6_2 + x6_3 = 1
 Contrainte6: x7_1 + x7_2 + x7_3 = 1
 Contrainte7: x8_1 + x8_2 + x8_3 = 1
 Contrainte8: x9_1 + x9_2 + x9_3 = 1
 Contrainte9: x10_1 + x10_2 + x10_3 = 1
 Contrainte10: x11_1 + x11_2 + x11_3 = 1
 Contrainte11: x12_1 + x12_2 + x12_3 = 1
 Contrainte12: x13_1 + x13_2 + x13_3 = 1
 Contrainte13: x14_1 + x14_2 + x14_3 = 1
 Contrainte14: x15_1 + x15_2 + x15_3 = 1
 Contrainte15: x16_1 + x16_2 + x16_3 = 1
 Contrainte16: x17_1 + x17_2 + x17_3 = 1
 Contrainte17: x18_1 + x18_2 + x18_3 = 1
 Contrainte18: x19_1 + x19_2 + x19_3 = 1
 Contrainte19: x20_1 + x20_2 + x20_3 = 1
 Contrainte20: x21_1 + x21_2 + x21_3 = 1
 Contrainte21: x22_1 + x22_2 + x22_3 = 1
 Contrainte22: x23_1 + x23_2 + x23_3 = 1
 Contrainte23: x24_1 + x24_2 + x24_3 = 1
 Contrainte24: x25_1 + x25_2 + x25_3 = 1
 Contrainte25: x26_1 + x26_2 + x26_3 = 1
 Contrainte26: x27_1 + x27_2 + x27_3 = 1
 Contrainte27: x28_1 + x28_2 + x28_3 = 1
 Contrainte28: x29_1 + x29_2 + x29_3 = 1
 Contrainte29: x30_1 + x30_2 + x30_3 = 1
 Contrainte30: x31_1 + x31_2 + x31_3 = 1
 Contrainte31: x32_1 + x32_2 + x32_3 = 1
 Contrainte32: x33_1 + x33_2 + x33_3 = 1
 Contrainte33: x34_1 + x34_2 + x34_3 = 1
 Contrainte34: x35_1 + x35_2 + x35_3 = 1
 Contrainte35: x36_1 + x36_2 + x36_3 = 1
 Contrainte36: 61793 x1_1 + 82327 x2_1 + 38080 x3_1 + 29284 x4_1
   + 114205 x5_1 + 19985 x6_1 + 18668 x7_1 + 32111 x8_1 + 32619 x9_1
   + 52546 x10_1 + 58916 x11_1 + 85398 x12_1 + 87469 x13_1 + 23351 x14_1
   + 18169 x15_1 + 41364 x16_1 + 64355 x17_1 + 27628 x18_1 + 27727 x19_1
   + 64253 x20_1 + 30982 x21_1 + 1647 x22_1 + 45058 x23_1 + 48597 x24_1
   + 89185 x25_1 + 61754 x26_1 + 44753 x27_1 + 79426 x28_1 + 29873 x29_1
   + 19638 x30_1 + 22978 x31_1 + 46723 x32_1 + 27002 x33_1 + 8615 x34_1
   + 10828 x35_1 + 25183 x36_1 <= 576579.6666666667
 Contrainte37: 61793 x1_2 + 82327 x2_2 + 38080 x3_2 + 29284 x4_2
   + 114205 x5_2 + 19985 x6_2 + 18668 x7_2 + 32111 x8_2 + 32619 x9_2
   + 52546 x10_2 + 58916 x11_2 + 85398 x12_2 + 87469 x13_2 + 23351 x14_2
   + 18169 x15_2 + 41364 x16_2 + 64355 x17_2 + 27628 x18_2 + 27727 x19_2
   + 64253 x20_2 + 30982 x21_2 + 1647 x22_2 + 45058 x23_2 + 48597 x24_2
   + 89185 x25_2 + 61754 x26_2 + 44753 x27_2 + 79426 x28_2 + 29873 x29_2
   + 19638 x30_2 + 22978 x31_2 + 46723 x32_2 + 27002 x33_2 + 8615 x34_2
   + 10828 x35_2 + 25183 x36_2 <= 576579.6666666667
 Contrainte38: 61793 x1_3 + 82327 x2_3 + 38080 x3_3 + 29284 x4_3
   + 114205 x5_3 + 19985 x6_3 + 18668 x7_3 + 32111 x8_3 + 32619 x9_3
   + 52546 x10_3 + 58916 x11_3 + 85398 x12_3 + 87469 x13_3 + 23351 x14_3
   + 18169 x15_3 + 41364 x16_3 + 64355 x17_3 + 27628 x18_3 + 27727 x19_3
   + 64253 x20_3 + 30982 x21_3 + 1647 x22_3 + 45058 x23_3 + 48597 x24_3
   + 89185 x25_3 + 61754 x26_3 + 44753 x27_3 + 79426 x28_3 + 29873 x29_3
   + 19638 x30_3 + 22978 x31_3 + 46723 x32_3 + 27002 x33_3 + 8615 x34_3
   + 10828 x35_3 + 25183 x36_3 <= 576579.6666666667
Bounds
Binaries
 x1_1 x1_2 x1_3 x2_1 x2_2 x2_3 x3_1 x3_2 x3_3 x4_1 x4_2 x4_3 x5_1 x5_2 x5_3
 x6_1 x6_2 x6_3 x7_1 x7_2 x7_3 x8_1 x8_2 x8_3 x9_1 x9_2 x9_3 x10_1 x10_2
 x10_3 x11_1 x11_2 x11_3 x12_1 x12_2 x12_3 x13_1 x13_2 x13_3 x14_1 x14_2
 x14_3 x15_1 x15_2 x15_3 x16_1 x16_2 x16_3 x17_1 x17_2 x17_3 x18_1 x18_2
 x18_3 x19_1 x19_2 x19_3 x20_1 x20_2 x20_3 x21_1 x21_2 x21_3 x22_1 x22_2
 x22_3 x23_1 x23_2 x23_3 x24_1 x24_2 x24_3 x25_1 x25_2 x25_3 x26_1 x26_2
 x26_3 x27_1 x27_2 x27_3 x28_1 x28_2 x28_3 x29_1 x29_2 x29_3 x30_1 x30_2
 x30_3 x31_1 x31_2 x31_3 x32_1 x32_2 x32_3 x33_1 x33_2 x33_3 x34_1 x34_2
 x34_3 x35_1 x35_2 x35_3 x36_1 x36_2 x36_3
End
